GLPSOL: GLPK LP/MIP Solver, v4.52
Parameter(s) specified in the command line:
 --model utils_GLPK/modelos/MTAV_empate.mod --data utils_GLPK/datos/MTAV_pref_empate.dat
 --output utils_GLPK/soluciones/MTAV_asign.sol --log utils_GLPK/logs/ejecucion_secundaria.log
Reading model section from utils_GLPK/modelos/MTAV_empate.mod...
utils_GLPK/modelos/MTAV_empate.mod:28: warning: final NL missing before end of file
utils_GLPK/modelos/MTAV_empate.mod:28: warning: unexpected end of file; missing end statement inserted
28 lines were read
Reading data section from utils_GLPK/datos/MTAV_pref_empate.dat...
utils_GLPK/datos/MTAV_pref_empate.dat:31: warning: final NL missing before end of file
31 lines were read
Generating s...
Generating unicaAsignacionCoperativista_mayorIgual...
Generating unicaAsignacionCoperativista_menorIgual...
Generating unicaAsignacionCasa_mayorIgual...
Generating unicaAsignacionCasa_menorIgual...
Generating z_menorIgual...
Model has been successfully generated
GLPK Integer Optimizer, v4.52
101 rows, 400 columns, 2400 non-zeros
400 integer variables, all of which are binary
Preprocessing...
1 hidden packing inequaliti(es) were detected
90 rows, 144 columns, 720 non-zeros
144 integer variables, all of which are binary
Scaling...
 A: min|aij| =  1.000e+00  max|aij| =  8.000e+00  ratio =  8.000e+00
Problem data seem to be well scaled
Constructing initial basis...
Size of triangular part is 90
Solving LP relaxation...
GLPK Simplex Optimizer, v4.52
90 rows, 144 columns, 720 non-zeros
      0: obj =   4.000000000e+00  infeas =  3.600e+01 (0)
*    58: obj =   9.800000000e+01  infeas =  0.000e+00 (0)
*   115: obj =   6.000000000e+01  infeas =  2.442e-15 (0)
OPTIMAL LP SOLUTION FOUND
Integer optimization begins...
+   115: mip =     not found yet >=              -inf        (1; 0)
+   117: >>>>>   6.000000000e+01 >=   6.000000000e+01   0.0% (1; 0)
+   117: mip =   6.000000000e+01 >=     tree is empty   0.0% (0; 1)
INTEGER OPTIMAL SOLUTION FOUND
Time used:   0.0 secs
Memory used: 0.8 Mb (825259 bytes)
Writing MIP solution to `utils_GLPK/soluciones/MTAV_asign.sol'...
